webassembly/ejemplos_dzn/folder14_json_38.dzn
TERM = { '.', 's(5)', 's(2)', 's(4)', 'in_1', 'local_0', 'local_1', 'in_6', 'in_2', 'in_4', 'in_3', 's(6)', 's(1)', 's(0)', 'in_5', 's(3)', 'in_0'};
null = '.';
s = 14;
n = 12;
ndeps = 6;
max_registers_sz = 5;
NR = 2;
registers = [|'local_0', 's(6)', |'local_1', 's(1)'|];
dependencies = [|'call[function_index(0)]_2', 'i32.store16_3', |'i32.store16_3', 'call[function_index(1)]_4', |'call[function_index(1)]_4', 'i32.load16_u_6', |'call[function_index(1)]_4', 'i32.load8_s_8', |'call[function_index(1)]_4', 'i32.load8_u_11', |'call[function_index(1)]_4', 'i32.load8_s_12'|];
GET_ENUM = { GET1, GET2, GET3, GET4, GET5, GET6, GET7};
SET_ENUM = { SET1, SET2, SET3, SET4, SET5, SET6, SET7};
TEE_ENUM = { TEE1, TEE2, TEE3, TEE4, TEE5, TEE6, TEE7};
N = 9;
OP = { 'i32.sub_0', 'call[function_index(0)]_2', 'call[function_index(1)]_4', 'i32.store16_3', 'i32.load16_u_6', 'i32.sub_1', 'i32.load8_s_8', 'i32.load8_u_11', 'i32.load8_s_12' };
in_ops = [2, 1, 2, 2, 1, 2, 1, 1, 1 ];
out_ops = [1, 0, 1, 0, 1, 1, 1, 1, 1 ];
in1 = ['in_0', 's(0)', 'in_4', 'in_2', 's(1)', 's(2)', 's(3)', 's(1)', 's(5)' ];
in2 = ['in_1', '.', 'in_5', 'in_3', '.', 'in_6', '.', '.', '.' ];
in3 = ['.', '.', '.', '.', '.', '.', '.', '.', '.' ];
out1 = ['s(0)', '.', 's(1)', '.', 's(2)', 's(3)', 's(4)', 's(5)', 's(6)' ];
out2 = ['.', '.', '.', '.', '.', '.', '.', '.', '.' ];
out3 = ['.', '.', '.', '.', '.', '.', '.', '.', '.' ];
comm = [false, false, false, false, false, false, false, false, false ];
gas = [1, 1, 1, 1, 1, 1, 1, 1, 1 ];
sz = [1, 1, 1, 1, 1, 1, 1, 1, 1 ];
stor = [false, true, true, true, false, false, false, false, false ];
lb = [ 1, 1, 1, 1, 1, 1, 1, 1, 1 ];
ub = [ 14, 14, 14, 14, 14, 14, 14, 14, 14 ];
startstack = [ 'in_0', 'in_1', 'in_2', 'in_3', 'in_4', 'in_5', 'in_6', null, null, null, null, null ];
endstack = [ null, null, null, null, null, null, null, null, null, null, null, null ];
