webassembly/ejemplos_results/14/folder14_json_38.txt
value = 14;
fgas = [1, 1, 1, 1, 1, 1, 1, 1, 1, 1, 1, 1, 1, 1];
fsize = [1, 1, 1, 1, 1, 1, 1, 1, 1, 1, 1, 1, 1, 1];
states = 
[|   in_0,   in_1, in_2, in_3, in_4, in_5, in_6, '.', '.', '.', '.', '.'
 | 's(0)',   in_0, in_3, in_4, in_5, in_6,  '.', '.', '.', '.', '.', '.'
 |   in_2,   in_3, in_4, in_5, in_6,  '.',  '.', '.', '.', '.', '.', '.'
 |   in_4,   in_5, in_6,  '.',  '.',  '.',  '.', '.', '.', '.', '.', '.'
 | 's(1)',   in_6,  '.',  '.',  '.',  '.',  '.', '.', '.', '.', '.', '.'
 | 's(1)',   in_6,  '.',  '.',  '.',  '.',  '.', '.', '.', '.', '.', '.'
 | 's(2)',   in_6,  '.',  '.',  '.',  '.',  '.', '.', '.', '.', '.', '.'
 | 's(2)',   in_6,  '.',  '.',  '.',  '.',  '.', '.', '.', '.', '.', '.'
 | 's(3)', 's(1)',  '.',  '.',  '.',  '.',  '.', '.', '.', '.', '.', '.'
 | 's(4)', 's(1)',  '.',  '.',  '.',  '.',  '.', '.', '.', '.', '.', '.'
 | 's(1)',    '.',  '.',  '.',  '.',  '.',  '.', '.', '.', '.', '.', '.'
 | 's(1)',    '.',  '.',  '.',  '.',  '.',  '.', '.', '.', '.', '.', '.'
 | 's(5)',    '.',  '.',  '.',  '.',  '.',  '.', '.', '.', '.', '.', '.'
 | 's(6)',    '.',  '.',  '.',  '.',  '.',  '.', '.', '.', '.', '.', '.'
 |    '.',    '.',  '.',  '.',  '.',  '.',  '.', '.', '.', '.', '.', '.'
 |];
register_states = 
[| local_0, local_1, '.', '.', '.', '.', '.'
 | local_0, local_1, '.', '.', '.', '.', '.'
 | local_0, local_1, '.', '.', '.', '.', '.'
 | local_0, local_1, '.', '.', '.', '.', '.'
 | local_0, local_1, '.', '.', '.', '.', '.'
 | local_0,  's(1)', '.', '.', '.', '.', '.'
 | local_0,  's(1)', '.', '.', '.', '.', '.'
 |  's(2)',  's(1)', '.', '.', '.', '.', '.'
 |  's(2)',  's(1)', '.', '.', '.', '.', '.'
 |  's(2)',  's(1)', '.', '.', '.', '.', '.'
 |  's(4)',  's(1)', '.', '.', '.', '.', '.'
 |  's(4)',  's(1)', '.', '.', '.', '.', '.'
 |  's(4)',  's(1)', '.', '.', '.', '.', '.'
 |  's(4)',  's(1)', '.', '.', '.', '.', '.'
 |  's(6)',  's(1)', '.', '.', '.', '.', '.'
 |];
program = [O('i32.sub_0'), O('call[function_index(0)]_2'), O('i32.store16_3'), O('call[function_index(1)]_4'), TEE(TEE2), O('i32.load16_u_6'), TEE(TEE1), O('i32.sub_1'), O('i32.load8_s_8'), S(SET1), TEE(TEE2), O('i32.load8_u_11'), O('i32.load8_s_12'), S(SET1)];
% time elapsed: 0.73 s
----------
=====UNKNOWN=====
% time elapsed: 0.98 s
